127 300 206 214 230 246 244 240 204 241 211 213 214 219 234 241 235 229 215 236 240 222 217 220 202 216 249 245 207 231 245 201 240 200 215 244 246 234 233 224 224 218 211 212 237 245 227 221 248 217 207 211 239 249 231 216 239 229 235 221 235 203 222 249 203 238 242 249 246 249 247 244 216 208 205 202 227 233 248 225 250 229 236 212 227 242 202 241 245 211 211 203 214 233 201 217 245 243 240 240 241 237 233 231 219 239 233 246 246 205 245 219 234 231 205 236 247 208 226 215 244 237 219 233 219 245 224 214 238 